NAME : X_18_seed_123_id_3
TYPE : CVRP
DIMENSION : 181
EDGE_WEIGHT_TYPE : EUC_2D
CAPACITY : 8
NODE_COORD_SECTION
1	339	55
2	72	722
3	243	176
4	544	615
5	108	721
6	219	491
7	472	832
8	64	690
9	387	846
10	501	881
11	234	693
12	139	608
13	292	214
14	549	796
15	68	642
16	460	835
17	260	124
18	439	851
19	66	712
20	183	563
21	57	673
22	36	692
23	531	664
24	174	145
25	132	769
26	281	424
27	285	115
28	341	260
29	178	709
30	653	561
31	487	825
32	22	609
33	637	604
34	224	205
35	158	771
36	97	766
37	229	94
38	154	628
39	321	317
40	518	836
41	441	765
42	309	282
43	276	465
44	101	718
45	464	710
46	152	669
47	297	187
48	419	825
49	263	442
50	463	792
51	231	241
52	12	708
53	72	814
54	304	344
55	254	475
56	260	489
57	214	504
58	90	696
59	389	793
60	112	671
61	140	748
62	431	634
63	481	823
64	61	662
65	458	836
66	520	592
67	243	498
68	222	81
69	230	176
70	142	509
71	173	462
72	93	694
73	728	750
74	189	218
75	643	708
76	207	719
77	176	760
78	494	900
79	27	486
80	548	623
81	57	674
82	175	502
83	206	191
84	52	765
85	190	464
86	319	458
87	314	515
88	452	877
89	47	740
90	147	246
91	525	649
92	269	167
93	453	804
94	25	704
95	204	483
96	41	420
97	298	186
98	459	842
99	168	468
100	243	158
101	229	461
102	282	259
103	366	763
104	244	477
105	307	326
106	463	810
107	294	177
108	544	652
109	54	392
110	162	545
111	444	790
112	80	712
113	491	760
114	597	596
115	194	546
116	289	111
117	499	763
118	483	866
119	57	696
120	189	220
121	59	770
122	113	716
123	122	694
124	594	573
125	141	477
126	284	397
127	128	720
128	551	612
129	382	809
130	548	634
131	657	455
132	462	596
133	468	690
134	405	888
135	9	874
136	59	681
137	445	572
138	71	733
139	484	836
140	236	112
141	450	705
142	81	749
143	571	486
144	261	232
145	209	149
146	313	236
147	488	877
148	26	641
149	192	583
150	211	539
151	227	490
152	548	623
153	75	731
154	231	532
155	473	800
156	468	739
157	174	380
158	318	214
159	516	527
160	195	395
161	165	870
162	463	869
163	477	830
164	233	164
165	547	597
166	632	685
167	447	536
168	475	577
169	163	707
170	59	489
171	416	605
172	265	500
173	509	493
174	246	574
175	97	668
176	273	492
177	233	707
178	151	460
179	463	642
180	121	749
181	102	579
DEMAND_SECTION
1	0
2	1
3	1
4	1
5	1
6	1
7	1
8	1
9	1
10	1
11	1
12	1
13	1
14	1
15	1
16	1
17	1
18	1
19	1
20	1
21	1
22	1
23	1
24	1
25	1
26	1
27	1
28	1
29	1
30	1
31	1
32	1
33	1
34	1
35	1
36	1
37	1
38	1
39	1
40	1
41	1
42	1
43	1
44	1
45	1
46	1
47	1
48	1
49	1
50	1
51	1
52	1
53	1
54	1
55	1
56	1
57	1
58	1
59	1
60	1
61	1
62	1
63	1
64	1
65	1
66	1
67	1
68	1
69	1
70	1
71	1
72	1
73	1
74	1
75	1
76	1
77	1
78	1
79	1
80	1
81	1
82	1
83	1
84	1
85	1
86	1
87	1
88	1
89	1
90	1
91	1
92	1
93	1
94	1
95	1
96	1
97	1
98	1
99	1
100	1
101	1
102	1
103	1
104	1
105	1
106	1
107	1
108	1
109	1
110	1
111	1
112	1
113	1
114	1
115	1
116	1
117	1
118	1
119	1
120	1
121	1
122	1
123	1
124	1
125	1
126	1
127	1
128	1
129	1
130	1
131	1
132	1
133	1
134	1
135	1
136	1
137	1
138	1
139	1
140	1
141	1
142	1
143	1
144	1
145	1
146	1
147	1
148	1
149	1
150	1
151	1
152	1
153	1
154	1
155	1
156	1
157	1
158	1
159	1
160	1
161	1
162	1
163	1
164	1
165	1
166	1
167	1
168	1
169	1
170	1
171	1
172	1
173	1
174	1
175	1
176	1
177	1
178	1
179	1
180	1
181	1
DEPOT_SECTION
1
-1
EOF
